100
75
59
59
59
58
58
58
57
57
56
55
55
54
53
53
52
52
52
50
50
50
50
50
49
49
48
47
47
47
46
46
46
46
44
44
43
42
41
41
40
40
39
39
38
38
38
35
35
35
34
34
33
33
33
32
32
31
31
31
31
29
29
28
28
27
27
26
26
26
25
24
24
24
24
24
23
23
23
21
21
20
19
19
19
18
18
17
17
17
17
16
13
10
9
9
9
8
8
7
7
7
